c
c This is glucose 2.1 --  based on MiniSAT (Many thanks to MiniSAT team)
c
c WARNING: for repeatability, setting FPU to use double precision
c ========================================[ Problem Statistics ]===========================================
c |                                                                                                       |
c |  Number of variables:        195146                                                                   |
c |  Number of clauses:          440554                                                                   |
c |  Parse time:                   0.13 s                                                                 |
c |                                                                                                       |
c ========================================[ MAGIC CONSTANTS ]==============================================
c | Constants are supposed to work well together :-)                                                      |
c | however, if you find better choices, please let us known...                                           |
c |-------------------------------------------------------------------------------------------------------|
c |                                |                                |                                     |
c | - Restarts:                    | - Reduce Clause DB:            | - Minimize Asserting:               |
c |   * LBD Queue    :     50      |   * First     :   4000         |    * size <  30                     |
c |   * Trail  Queue :   5000      |   * Inc       :    300         |    * lbd  <   6                     |
c |   * K            :   0.80      |   * Special   :   1000         |                                     |
c |   * R            :   1.40      |   * Protected :  (lbd)< 30     |                                     |
c |                                |                                |                                     |
c ==================================[ Search Statistics (every  10000 conflicts) ]=========================
c |                                                                                                       |
c |          RESTARTS           |          ORIGINAL         |              LEARNT              | Progress |
c |       NB   Blocked  Avg Cfc |    Vars  Clauses Literals |   Red   Learnts    LBD2  Removed |          |
c =========================================================================================================
c |       46         0      217 |  105316   429354   965224 |     1     8006      135     1993 | 46.032 % |
c |       91         2      219 |  105316   429354   965224 |     3     6962      260    13037 | 46.032 % |
c |      156         2      192 |  105316   429354   965224 |     3    16962      381    13037 | 46.032 % |
c |      194         7      206 |  105316   429354   965224 |     4    17689      453    22310 | 46.032 % |
c |      247         7      202 |  105316   429354   965224 |     5    15857      520    34142 | 46.032 % |
c |      281         7      213 |  105316   429354   965224 |     5    25857      579    34142 | 46.032 % |
c |      333         7      210 |  105316   429354   965224 |     6    21437      633    48562 | 46.032 % |
c |      399         7      200 |  105316   429354   965224 |     6    31437      668    48562 | 46.032 % |
c |      475         8      189 |  105316   429354   965224 |     7    24431      727    65568 | 46.032 % |
c |      549         8      182 |  105316   429354   965224 |     7    34431      762    65568 | 46.032 % |
c |      611         8      180 |  105316   429354   965224 |     8    24818      789    85181 | 46.032 % |
c |      651         8      184 |  105316   429354   965224 |     8    34818      803    85181 | 46.032 % |
c |      684         8      190 |  105316   429354   965224 |     9    22611      828   107388 | 46.032 % |
c |      715         8      195 |  105316   429354   965224 |     9    32611      868   107388 | 46.032 % |
c |      815         8      184 |  105316   429354   965224 |     9    42611      902   107388 | 46.032 % |
c |      883         8      181 |  105316   429354   965224 |    10    27814      920   132185 | 46.032 % |
c |      970         8      175 |  105316   429354   965224 |    10    37814      949   132185 | 46.032 % |
c |     1038         8      173 |  105316   429354   965224 |    10    47814      961   132185 | 46.032 % |
c |     1109         8      171 |  105316   429354   965224 |    11    30412      979   159587 | 46.032 % |
c |     1180         8      169 |  105316   429354   965224 |    11    40412      994   159587 | 46.032 % |
c |     1240         8      169 |  105316   429354   965224 |    11    50412     1013   159587 | 46.032 % |
c |     1307         8      168 |  105316   429354   965224 |    12    30413     1028   189586 | 46.032 % |
c |     1389         8      165 |  105316   429354   965224 |    12    40413     1044   189586 | 46.032 % |
c |     1481         8      162 |  105316   429354   965224 |    12    50413     1058   189586 | 46.032 % |
c |     1543         8      162 |  105316   429354   965224 |    12    60413     1077   189586 | 46.032 % |
c |     1631         8      159 |  105316   429354   965224 |    13    37814     1090   222185 | 46.032 % |
c |     1684         8      160 |  105316   429354   965224 |    13    47814     1099   222185 | 46.032 % |
c |     1738         8      161 |  105316   429354   965224 |    13    57814     1113   222185 | 46.032 % |
c |     1756         8      165 |  105316   429354   965224 |    13    67814     1114   222185 | 46.032 % |
c |     1817         8      165 |  105076   429114   964504 |    14    36059     1124   257379 | 46.155 % |
c |     1837         8      168 |  105072   429110   964492 |    14    44316     1130   257379 | 46.157 % |
c |     1905         8      167 |  105072   429110   964492 |    14    54316     1135   257379 | 46.157 % |
c |     1976         8      167 |  105072   429110   964492 |    14    64316     1139   257379 | 46.157 % |
c |     1987         8      171 |  105072   429110   964492 |    15    40662     1141   291033 | 46.157 % |
c |     2041         8      171 |  105072   429110   964492 |    15    50662     1144   291033 | 46.157 % |
c |     2098         8      171 |  105072   429110   964492 |    15    60662     1145   291033 | 46.157 % |
c |     2173         8      170 |  105072   429110   964492 |    15    70662     1148   291033 | 46.157 % |
c =========================================================================================================
c restarts              : 2181 (171 conflicts in avg)
c blocked restarts      : 8 (multiple: 4) 
c last block at restart : 418
c nb ReduceDB           : 15
c nb removed Clauses    : 291033
c nb learnts DL2        : 1165
c nb learnts size 2     : 894
c nb learnts size 1     : 8
c conflicts             : 375068         (2410 /sec)
c decisions             : 846302         (0.00 % random) (5438 /sec)
c propagations          : 459586511      (2953153 /sec)
c conflict literals     : 20521673       (42.48 % deleted)
c nb reduced Clauses    : 484
c CPU time              : 155.626 s
s UNSATISFIABLE
